problem_generation/data/GISP/train/er_n=64_m=1192_p=0.60_SET2_setparam=100.00_alpha=0.50_454.lp
maximize
OBJ:100x0 + 100x1 + 100x2 + 100x3 + 100x4 + 100x5 + 100x6 + 100x7 + 100x8 + 100x9 + 100x10 + 100x11 + 100x12 + 100x13 + 100x14 + 100x15 + 100x16 + 100x17 + 100x18 + 100x19 + 100x20 + 100x21 + 100x22 + 100x23 + 100x24 + 100x25 + 100x26 + 100x27 + 100x28 + 100x29 + 100x30 + 100x31 + 100x32 + 100x33 + 100x34 + 100x35 + 100x36 + 100x37 + 100x38 + 100x39 + 100x40 + 100x41 + 100x42 + 100x43 + 100x44 + 100x45 + 100x46 + 100x47 + 100x48 + 100x49 + 100x50 + 100x51 + 100x52 + 100x53 + 100x54 + 100x55 + 100x56 + 100x57 + 100x58 + 100x59 + 100x60 + 100x61 + 100x62 + 100x63 - y7_26 - y18_26 - y15_39 - y17_58 - y26_39 - y7_35 - y11_14 - y29_50 - y48_63 - y0_23 - y6_57 - y10_27 - y25_34 - y44_47 - y2_41 - y3_6 - y25_43 - y33_56 - y22_28 - y2_59 - y3_24 - y22_37 - y3_33 - y22_46 - y7_12 - y7_21 - y36_57 - y17_62 - y29_36 - y21_32 - y6_52 - y6_61 - y29_63 - y40_63 - y10_22 - y2_45 - y25_47 - y2_54 - y14_19 - y32_55 - y13_51 - y24_60 - y3_37 - y16_56 - y55_56 - y7_16 - y36_52 - y5_46 - y47_61 - y17_57 - y6_47 - y40_49 - y21_54 - y39_62 - y2_22 - y54_60 - y10_35 - y2_31 - y10_44 - y12_63 - y25_42 - y32_41 - y24_46 - y43_59 - y24_55 - y35_55 - y16_51 - y17_25 - y28_34 - y47_56 - y6_15 - y28_61 - y58_62 - y42_63 - y21_49 - y39_48 - y10_21 - y2_17 - y20_53 - y2_26 - y25_28 - y10_39 - y12_58 - y31_62 - y24_32 - y32_45 - y3_18 - y14_18 - y43_54 - y1_48 - y24_50 - y43_63 - y16_46 - y13_59 - y24_59 - y35_59 - y16_55 - y9_34 - y5_45 - y6_19 - y9_52 - y29_30 - y6_37 - y21_35 - y39_43 - y2_3 - y10_16 - y2_12 - y31_48 - y12_44 - y12_62 - y13_27 - y32_40 - y1_34 - y24_36 - y24_45 - y24_54 - y24_63 - y5_22 - y46_60 - y57_60 - y9_20 - y17_33 - y9_29 - y9_38 - y6_14 - y9_47 - y6_23 - y42_44 - y58_61 - y21_30 - y42_62 - y0_56 - y12_39 - y31_52 - y12_48 - y54_63 - y12_57 - y13_22 - y23_57 - y13_31 - y24_31 - y32_44 - y13_40 - y1_47 - y35_49 - y16_54 - y28_37 - y6_9 - y27_41 - y6_18 - y42_48 - y50_61 - y31_38 - y39_51 - y23_34 - y39_60 - y23_43 - y31_56 - y4_39 - y13_17 - y4_48 - y16_22 - y1_33 - y13_44 - y16_49 - y9_10 - y38_46 - y17_23 - y57_59 - y9_19 - y26_53 - y9_28 - y5_39 - y7_58 - y27_36 - y19_41 - y19_50 - y8_59 - y12_20 - y31_33 - y23_29 - y20_42 - y23_38 - y13_21 - y53_57 - y13_30 - y24_30 - y22_60 - y45_62 - y56_62 - y37_58 - y38_41 - y38_50 - y46_63 - y57_63 - y15_57 - y49_59 - y7_53 - y18_53 - y7_62 - y8_27 - y27_40 - y27_49 - y19_54 - y30_54 - y8_63 - y30_63 - y0_59 - y11_59 - y12_24 - y4_20 - y23_33 - y1_5 - y4_38 - y1_14 - y1_23 - y22_55 - y45_57 - y1_32 - y56_57 - y16_30 - y5_11 - y46_49 - y38_45 - y7_39 - y15_52 - y7_48 - y49_63 - y7_57 - y27_35 - y0_18 - y8_31 - y19_31 - y0_27 - y27_53 - y8_49 - y30_49 - y20_32 - y12_28 - y23_28 - y4_24 - y33_60 - y44_60 - y4_33 - y1_9 - y2_63 - y3_46 - y14_55 - y15_20 - y5_6 - y7_25 - y18_25 - y15_38 - y7_34 - y7_43 - y7_52 - y18_52 - y11_13 - y18_61 - y8_26 - y19_26 - y29_58 - y8_35 - y0_31 - y8_44 - y30_44 - y41_50 - y4_10 - y33_46 - y12_23 - y41_59 - y52_59 - y10_53 - y4_28 - y22_36 - y34_56 - y14_59 - y15_24 - y7_20 - y15_33 - y18_38 - y0_8 - y19_21 - y29_53 - y6_60 - y21_58 - y0_35 - y41_45 - y33_41 - y52_54 - y4_14 - y33_50 - y52_63 - y44_59 - y25_55 - y14_36 - y3_36 - y37_38 - y3_45 - y37_47 - y3_54 - y37_56 - y7_15 - y15_28 - y26_28 - y18_24 - y47_60 - y26_46 - y18_42 - y8_16 - y48_61 - y6_55 - y11_21 - y40_57 - y33_36 - y41_49 - y10_43 - y44_45 - y2_39 - y44_54 - y44_63 - y25_59 - y3_31 - y36_46 - y18_19 - y36_55 - y15_32 - y28_51 - y17_60 - y28_60 - y18_37 - y6_41 - y48_56 - y6_59 - y41_44 - y2_43 - y51_57 - y25_54 - y32_53 - y32_62 - y14_44 - y7_14 - y17_46 - y28_46 - y18_23 - y17_55 - y9_51 - y6_27 - y9_60 - y21_34 - y29_47 - y10_33 - y10_51 - y32_48 - y51_61 - y2_56 - y43_57 - y3_30 - y1_60 - y35_62 - y28_32 - y7_9 - y28_41 - y36_54 - y47_54 - y5_57 - y9_55 - y29_42 - y29_51 - y40_51 - y6_58 - y2_15 - y10_28 - y20_60 - y31_60 - y51_56 - y13_39 - y3_16 - y43_52 - y35_48 - y3_25 - y32_61 - y16_62 - y36_40 - y9_23 - y36_58 - y9_41 - y5_52 - y28_54 - y5_61 - y28_63 - y50_60 - y6_35 - y21_33 - y39_50 - y39_59 - y2_19 - y10_32 - y12_51 - y12_60 - y23_60 - y32_38 - y35_43 - y24_52 - y24_61 - y16_57 - y5_29 - y5_38 - y3_56 - y17_49 - y9_45 - y6_21 - y9_54 - y6_30 - y27_62 - y19_58 - y11_63 - y39_54 - y20_50 - y31_59 - y13_20 - y24_29 - y51_55 - y32_51 - y1_45 - y13_47 - y24_47 - y35_56 - y5_15 - y1_63 - y9_13 - y5_24 - y5_33 - y28_35 - y9_31 - y5_42 - y58_63 - y27_57 - y19_62 - y30_62 - y11_58 - y39_40 - y20_36 - y12_32 - y20_45 - y20_54 - y4_37 - y54_56 - y23_50 - y20_63 - y4_55 - y1_31 - y16_29 - y35_42 - y1_49 - y35_51 - y46_48 - y46_57 - y17_30 - y49_62 - y27_34 - y19_39 - y27_52 - y8_48 - y11_44 - y8_57 - y0_53 - y12_18 - y20_40 - y4_23 - y39_53 - y12_36 - y4_41 - y12_54 - y13_19 - y4_50 - y1_26 - y24_28 - y34_60 - y56_60 - y13_37 - y24_37 - y16_42 - y38_39 - y46_52 - y9_12 - y9_21 - y15_55 - y5_32 - y18_51 - y27_29 - y18_60 - y8_25 - y27_38 - y19_34 - y11_48 - y8_61 - y12_22 - y20_35 - y4_18 - y20_44 - y1_21 - y53_59 - y4_54 - y34_55 - y45_55 - y37_51 - y16_28 - y22_62 - y3_58 - y14_58 - y5_9 - y26_41 - y5_18 - y26_50 - y7_46 - y38_61 - y27_33 - y19_29 - y11_25 - y27_51 - y0_34 - y11_34 - y0_43 - y19_56 - y0_61 - y12_26 - y41_62 - y31_39 - y12_35 - y23_35 - y34_41 - y45_50 - y16_23 - y22_57 - y34_59 - y37_55 - y14_62 - y15_27 - y26_36 - y7_32 - y18_32 - y26_45 - y18_41 - y38_56 - y7_50 - y0_11 - y19_24 - y8_33 - y19_42 - y11_38 - y19_51 - y30_51 - y4_8 - y12_21 - y41_57 - y44_53 - y44_62 - y4_35 - y37_41 - y3_48 - y37_50 - y56_63 - y15_40 - y15_49 - y18_45 - y48_55 - y11_15 - y0_24 - y8_37 - y33_39 - y44_48 - y41_61 - y33_57 - y44_57 - y2_51 - y22_29 - y1_6 - y2_60 - y14_34 - y34_49 - y14_43 - y37_45 - y37_54 - y59_60 - y15_44 - y17_63 - y7_40 - y18_40 - y8_14 - y48_50 - y0_10 - y29_46 - y6_53 - y11_19 - y29_55 - y11_28 - y21_60 - y33_34 - y52_56 - y33_52 - y3_20 - y34_35 - y14_29 - y34_44 - y22_51 - y14_47 - y14_56
 Subject to
C1: x0+x1 <=1 
C2: x0+x4 <=1 
C3: x0+x5 <=1 
C4: x0+x6 <=1 
C5: x0+x8-y0_8 <=1 
C6: x0+x10-y0_10 <=1 
C7: x0+x11-y0_11 <=1 
C8: x0+x12 <=1 
C9: x0+x18-y0_18 <=1 
C10: x0+x19 <=1 
C11: x0+x21 <=1 
C12: x0+x22 <=1 
C13: x0+x23-y0_23 <=1 
C14: x0+x24-y0_24 <=1 
C15: x0+x27-y0_27 <=1 
C16: x0+x31-y0_31 <=1 
C17: x0+x34-y0_34 <=1 
C18: x0+x35-y0_35 <=1 
C19: x0+x38 <=1 
C20: x0+x39 <=1 
C21: x0+x41 <=1 
C22: x0+x43-y0_43 <=1 
C23: x0+x44 <=1 
C24: x0+x45 <=1 
C25: x0+x46 <=1 
C26: x0+x47 <=1 
C27: x0+x50 <=1 
C28: x0+x51 <=1 
C29: x0+x53-y0_53 <=1 
C30: x0+x56-y0_56 <=1 
C31: x0+x58 <=1 
C32: x0+x59-y0_59 <=1 
C33: x0+x60 <=1 
C34: x0+x61-y0_61 <=1 
C35: x0+x63 <=1 
C36: x1+x4 <=1 
C37: x1+x5-y1_5 <=1 
C38: x1+x6-y1_6 <=1 
C39: x1+x7 <=1 
C40: x1+x8 <=1 
C41: x1+x9-y1_9 <=1 
C42: x1+x11 <=1 
C43: x1+x14-y1_14 <=1 
C44: x1+x15 <=1 
C45: x1+x17 <=1 
C46: x1+x19 <=1 
C47: x1+x21-y1_21 <=1 
C48: x1+x23-y1_23 <=1 
C49: x1+x24 <=1 
C50: x1+x26-y1_26 <=1 
C51: x1+x27 <=1 
C52: x1+x31-y1_31 <=1 
C53: x1+x32-y1_32 <=1 
C54: x1+x33-y1_33 <=1 
C55: x1+x34-y1_34 <=1 
C56: x1+x37 <=1 
C57: x1+x38 <=1 
C58: x1+x39 <=1 
C59: x1+x40 <=1 
C60: x1+x42 <=1 
C61: x1+x45-y1_45 <=1 
C62: x1+x47-y1_47 <=1 
C63: x1+x48-y1_48 <=1 
C64: x1+x49-y1_49 <=1 
C65: x1+x50 <=1 
C66: x1+x51 <=1 
C67: x1+x53 <=1 
C68: x1+x57 <=1 
C69: x1+x58 <=1 
C70: x1+x59 <=1 
C71: x1+x60-y1_60 <=1 
C72: x1+x63-y1_63 <=1 
C73: x2+x3-y2_3 <=1 
C74: x2+x5 <=1 
C75: x2+x6 <=1 
C76: x2+x10 <=1 
C77: x2+x12-y2_12 <=1 
C78: x2+x15-y2_15 <=1 
C79: x2+x16 <=1 
C80: x2+x17-y2_17 <=1 
C81: x2+x18 <=1 
C82: x2+x19-y2_19 <=1 
C83: x2+x21 <=1 
C84: x2+x22-y2_22 <=1 
C85: x2+x23 <=1 
C86: x2+x24 <=1 
C87: x2+x25 <=1 
C88: x2+x26-y2_26 <=1 
C89: x2+x29 <=1 
C90: x2+x30 <=1 
C91: x2+x31-y2_31 <=1 
C92: x2+x33 <=1 
C93: x2+x34 <=1 
C94: x2+x35 <=1 
C95: x2+x39-y2_39 <=1 
C96: x2+x40 <=1 
C97: x2+x41-y2_41 <=1 
C98: x2+x42 <=1 
C99: x2+x43-y2_43 <=1 
C100: x2+x45-y2_45 <=1 
C101: x2+x48 <=1 
C102: x2+x50 <=1 
C103: x2+x51-y2_51 <=1 
C104: x2+x53 <=1 
C105: x2+x54-y2_54 <=1 
C106: x2+x56-y2_56 <=1 
C107: x2+x59-y2_59 <=1 
C108: x2+x60-y2_60 <=1 
C109: x2+x61 <=1 
C110: x2+x63-y2_63 <=1 
C111: x3+x4 <=1 
C112: x3+x6-y3_6 <=1 
C113: x3+x9 <=1 
C114: x3+x14 <=1 
C115: x3+x15 <=1 
C116: x3+x16-y3_16 <=1 
C117: x3+x18-y3_18 <=1 
C118: x3+x19 <=1 
C119: x3+x20-y3_20 <=1 
C120: x3+x22 <=1 
C121: x3+x24-y3_24 <=1 
C122: x3+x25-y3_25 <=1 
C123: x3+x26 <=1 
C124: x3+x27 <=1 
C125: x3+x28 <=1 
C126: x3+x29 <=1 
C127: x3+x30-y3_30 <=1 
C128: x3+x31-y3_31 <=1 
C129: x3+x33-y3_33 <=1 
C130: x3+x35 <=1 
C131: x3+x36-y3_36 <=1 
C132: x3+x37-y3_37 <=1 
C133: x3+x38 <=1 
C134: x3+x39 <=1 
C135: x3+x44 <=1 
C136: x3+x45-y3_45 <=1 
C137: x3+x46-y3_46 <=1 
C138: x3+x47 <=1 
C139: x3+x48-y3_48 <=1 
C140: x3+x49 <=1 
C141: x3+x50 <=1 
C142: x3+x53 <=1 
C143: x3+x54-y3_54 <=1 
C144: x3+x56-y3_56 <=1 
C145: x3+x58-y3_58 <=1 
C146: x3+x62 <=1 
C147: x4+x7 <=1 
C148: x4+x8-y4_8 <=1 
C149: x4+x9 <=1 
C150: x4+x10-y4_10 <=1 
C151: x4+x11 <=1 
C152: x4+x14-y4_14 <=1 
C153: x4+x15 <=1 
C154: x4+x18-y4_18 <=1 
C155: x4+x19 <=1 
C156: x4+x20-y4_20 <=1 
C157: x4+x23-y4_23 <=1 
C158: x4+x24-y4_24 <=1 
C159: x4+x25 <=1 
C160: x4+x27 <=1 
C161: x4+x28-y4_28 <=1 
C162: x4+x29 <=1 
C163: x4+x31 <=1 
C164: x4+x32 <=1 
C165: x4+x33-y4_33 <=1 
C166: x4+x35-y4_35 <=1 
C167: x4+x37-y4_37 <=1 
C168: x4+x38-y4_38 <=1 
C169: x4+x39-y4_39 <=1 
C170: x4+x41-y4_41 <=1 
C171: x4+x44 <=1 
C172: x4+x47 <=1 
C173: x4+x48-y4_48 <=1 
C174: x4+x50-y4_50 <=1 
C175: x4+x54-y4_54 <=1 
C176: x4+x55-y4_55 <=1 
C177: x4+x57 <=1 
C178: x4+x59 <=1 
C179: x5+x6-y5_6 <=1 
C180: x5+x9-y5_9 <=1 
C181: x5+x10 <=1 
C182: x5+x11-y5_11 <=1 
C183: x5+x12 <=1 
C184: x5+x13 <=1 
C185: x5+x15-y5_15 <=1 
C186: x5+x18-y5_18 <=1 
C187: x5+x19 <=1 
C188: x5+x21 <=1 
C189: x5+x22-y5_22 <=1 
C190: x5+x23 <=1 
C191: x5+x24-y5_24 <=1 
C192: x5+x25 <=1 
C193: x5+x27 <=1 
C194: x5+x28 <=1 
C195: x5+x29-y5_29 <=1 
C196: x5+x32-y5_32 <=1 
C197: x5+x33-y5_33 <=1 
C198: x5+x35 <=1 
C199: x5+x38-y5_38 <=1 
C200: x5+x39-y5_39 <=1 
C201: x5+x40 <=1 
C202: x5+x42-y5_42 <=1 
C203: x5+x43 <=1 
C204: x5+x44 <=1 
C205: x5+x45-y5_45 <=1 
C206: x5+x46-y5_46 <=1 
C207: x5+x49 <=1 
C208: x5+x50 <=1 
C209: x5+x52-y5_52 <=1 
C210: x5+x55 <=1 
C211: x5+x57-y5_57 <=1 
C212: x5+x61-y5_61 <=1 
C213: x6+x8 <=1 
C214: x6+x9-y6_9 <=1 
C215: x6+x10 <=1 
C216: x6+x11 <=1 
C217: x6+x12 <=1 
C218: x6+x14-y6_14 <=1 
C219: x6+x15-y6_15 <=1 
C220: x6+x17 <=1 
C221: x6+x18-y6_18 <=1 
C222: x6+x19-y6_19 <=1 
C223: x6+x20 <=1 
C224: x6+x21-y6_21 <=1 
C225: x6+x22 <=1 
C226: x6+x23-y6_23 <=1 
C227: x6+x27-y6_27 <=1 
C228: x6+x30-y6_30 <=1 
C229: x6+x32 <=1 
C230: x6+x33 <=1 
C231: x6+x34 <=1 
C232: x6+x35-y6_35 <=1 
C233: x6+x37-y6_37 <=1 
C234: x6+x38 <=1 
C235: x6+x39 <=1 
C236: x6+x41-y6_41 <=1 
C237: x6+x42 <=1 
C238: x6+x44 <=1 
C239: x6+x45 <=1 
C240: x6+x46 <=1 
C241: x6+x47-y6_47 <=1 
C242: x6+x48 <=1 
C243: x6+x49 <=1 
C244: x6+x52-y6_52 <=1 
C245: x6+x53-y6_53 <=1 
C246: x6+x55-y6_55 <=1 
C247: x6+x57-y6_57 <=1 
C248: x6+x58-y6_58 <=1 
C249: x6+x59-y6_59 <=1 
C250: x6+x60-y6_60 <=1 
C251: x6+x61-y6_61 <=1 
C252: x6+x63 <=1 
C253: x7+x9-y7_9 <=1 
C254: x7+x12-y7_12 <=1 
C255: x7+x14-y7_14 <=1 
C256: x7+x15-y7_15 <=1 
C257: x7+x16-y7_16 <=1 
C258: x7+x20-y7_20 <=1 
C259: x7+x21-y7_21 <=1 
C260: x7+x22 <=1 
C261: x7+x24 <=1 
C262: x7+x25-y7_25 <=1 
C263: x7+x26-y7_26 <=1 
C264: x7+x28 <=1 
C265: x7+x31 <=1 
C266: x7+x32-y7_32 <=1 
C267: x7+x33 <=1 
C268: x7+x34-y7_34 <=1 
C269: x7+x35-y7_35 <=1 
C270: x7+x37 <=1 
C271: x7+x39-y7_39 <=1 
C272: x7+x40-y7_40 <=1 
C273: x7+x42 <=1 
C274: x7+x43-y7_43 <=1 
C275: x7+x46-y7_46 <=1 
C276: x7+x48-y7_48 <=1 
C277: x7+x50-y7_50 <=1 
C278: x7+x52-y7_52 <=1 
C279: x7+x53-y7_53 <=1 
C280: x7+x54 <=1 
C281: x7+x57-y7_57 <=1 
C282: x7+x58-y7_58 <=1 
C283: x7+x59 <=1 
C284: x7+x61 <=1 
C285: x7+x62-y7_62 <=1 
C286: x7+x63 <=1 
C287: x8+x10 <=1 
C288: x8+x11 <=1 
C289: x8+x14-y8_14 <=1 
C290: x8+x16-y8_16 <=1 
C291: x8+x17 <=1 
C292: x8+x18 <=1 
C293: x8+x21 <=1 
C294: x8+x22 <=1 
C295: x8+x25-y8_25 <=1 
C296: x8+x26-y8_26 <=1 
C297: x8+x27-y8_27 <=1 
C298: x8+x29 <=1 
C299: x8+x31-y8_31 <=1 
C300: x8+x33-y8_33 <=1 
C301: x8+x35-y8_35 <=1 
C302: x8+x37-y8_37 <=1 
C303: x8+x39 <=1 
C304: x8+x40 <=1 
C305: x8+x44-y8_44 <=1 
C306: x8+x48-y8_48 <=1 
C307: x8+x49-y8_49 <=1 
C308: x8+x54 <=1 
C309: x8+x57-y8_57 <=1 
C310: x8+x59-y8_59 <=1 
C311: x8+x60 <=1 
C312: x8+x61-y8_61 <=1 
C313: x8+x62 <=1 
C314: x8+x63-y8_63 <=1 
C315: x9+x10-y9_10 <=1 
C316: x9+x11 <=1 
C317: x9+x12-y9_12 <=1 
C318: x9+x13-y9_13 <=1 
C319: x9+x19-y9_19 <=1 
C320: x9+x20-y9_20 <=1 
C321: x9+x21-y9_21 <=1 
C322: x9+x22 <=1 
C323: x9+x23-y9_23 <=1 
C324: x9+x25 <=1 
C325: x9+x26 <=1 
C326: x9+x27 <=1 
C327: x9+x28-y9_28 <=1 
C328: x9+x29-y9_29 <=1 
C329: x9+x31-y9_31 <=1 
C330: x9+x34-y9_34 <=1 
C331: x9+x38-y9_38 <=1 
C332: x9+x39 <=1 
C333: x9+x41-y9_41 <=1 
C334: x9+x42 <=1 
C335: x9+x45-y9_45 <=1 
C336: x9+x46 <=1 
C337: x9+x47-y9_47 <=1 
C338: x9+x48 <=1 
C339: x9+x50 <=1 
C340: x9+x51-y9_51 <=1 
C341: x9+x52-y9_52 <=1 
C342: x9+x54-y9_54 <=1 
C343: x9+x55-y9_55 <=1 
C344: x9+x58 <=1 
C345: x9+x60-y9_60 <=1 
C346: x9+x62 <=1 
C347: x9+x63 <=1 
C348: x10+x12 <=1 
C349: x10+x13 <=1 
C350: x10+x16-y10_16 <=1 
C351: x10+x17 <=1 
C352: x10+x21-y10_21 <=1 
C353: x10+x22-y10_22 <=1 
C354: x10+x25 <=1 
C355: x10+x27-y10_27 <=1 
C356: x10+x28-y10_28 <=1 
C357: x10+x29 <=1 
C358: x10+x31 <=1 
C359: x10+x32-y10_32 <=1 
C360: x10+x33-y10_33 <=1 
C361: x10+x34 <=1 
C362: x10+x35-y10_35 <=1 
C363: x10+x38 <=1 
C364: x10+x39-y10_39 <=1 
C365: x10+x43-y10_43 <=1 
C366: x10+x44-y10_44 <=1 
C367: x10+x50 <=1 
C368: x10+x51-y10_51 <=1 
C369: x10+x52 <=1 
C370: x10+x53-y10_53 <=1 
C371: x10+x54 <=1 
C372: x10+x57 <=1 
C373: x10+x60 <=1 
C374: x10+x62 <=1 
C375: x10+x63 <=1 
C376: x11+x13-y11_13 <=1 
C377: x11+x14-y11_14 <=1 
C378: x11+x15-y11_15 <=1 
C379: x11+x17 <=1 
C380: x11+x19-y11_19 <=1 
C381: x11+x21-y11_21 <=1 
C382: x11+x25-y11_25 <=1 
C383: x11+x26 <=1 
C384: x11+x28-y11_28 <=1 
C385: x11+x29 <=1 
C386: x11+x30 <=1 
C387: x11+x33 <=1 
C388: x11+x34-y11_34 <=1 
C389: x11+x36 <=1 
C390: x11+x38-y11_38 <=1 
C391: x11+x40 <=1 
C392: x11+x41 <=1 
C393: x11+x42 <=1 
C394: x11+x43 <=1 
C395: x11+x44-y11_44 <=1 
C396: x11+x46 <=1 
C397: x11+x48-y11_48 <=1 
C398: x11+x49 <=1 
C399: x11+x50 <=1 
C400: x11+x52 <=1 
C401: x11+x54 <=1 
C402: x11+x58-y11_58 <=1 
C403: x11+x59-y11_59 <=1 
C404: x11+x61 <=1 
C405: x11+x62 <=1 
C406: x11+x63-y11_63 <=1 
C407: x12+x17 <=1 
C408: x12+x18-y12_18 <=1 
C409: x12+x19 <=1 
C410: x12+x20-y12_20 <=1 
C411: x12+x21-y12_21 <=1 
C412: x12+x22-y12_22 <=1 
C413: x12+x23-y12_23 <=1 
C414: x12+x24-y12_24 <=1 
C415: x12+x26-y12_26 <=1 
C416: x12+x28-y12_28 <=1 
C417: x12+x32-y12_32 <=1 
C418: x12+x33 <=1 
C419: x12+x34 <=1 
C420: x12+x35-y12_35 <=1 
C421: x12+x36-y12_36 <=1 
C422: x12+x39-y12_39 <=1 
C423: x12+x40 <=1 
C424: x12+x41 <=1 
C425: x12+x44-y12_44 <=1 
C426: x12+x48-y12_48 <=1 
C427: x12+x51-y12_51 <=1 
C428: x12+x52 <=1 
C429: x12+x54-y12_54 <=1 
C430: x12+x55 <=1 
C431: x12+x56 <=1 
C432: x12+x57-y12_57 <=1 
C433: x12+x58-y12_58 <=1 
C434: x12+x59 <=1 
C435: x12+x60-y12_60 <=1 
C436: x12+x62-y12_62 <=1 
C437: x12+x63-y12_63 <=1 
C438: x13+x15 <=1 
C439: x13+x16 <=1 
C440: x13+x17-y13_17 <=1 
C441: x13+x19-y13_19 <=1 
C442: x13+x20-y13_20 <=1 
C443: x13+x21-y13_21 <=1 
C444: x13+x22-y13_22 <=1 
C445: x13+x23 <=1 
C446: x13+x24 <=1 
C447: x13+x25 <=1 
C448: x13+x27-y13_27 <=1 
C449: x13+x30-y13_30 <=1 
C450: x13+x31-y13_31 <=1 
C451: x13+x32 <=1 
C452: x13+x34 <=1 
C453: x13+x35 <=1 
C454: x13+x36 <=1 
C455: x13+x37-y13_37 <=1 
C456: x13+x39-y13_39 <=1 
C457: x13+x40-y13_40 <=1 
C458: x13+x41 <=1 
C459: x13+x44-y13_44 <=1 
C460: x13+x45 <=1 
C461: x13+x47-y13_47 <=1 
C462: x13+x50 <=1 
C463: x13+x51-y13_51 <=1 
C464: x13+x52 <=1 
C465: x13+x55 <=1 
C466: x13+x56 <=1 
C467: x13+x59-y13_59 <=1 
C468: x13+x62 <=1 
C469: x14+x15 <=1 
C470: x14+x17 <=1 
C471: x14+x18-y14_18 <=1 
C472: x14+x19-y14_19 <=1 
C473: x14+x20 <=1 
C474: x14+x21 <=1 
C475: x14+x22 <=1 
C476: x14+x29-y14_29 <=1 
C477: x14+x30 <=1 
C478: x14+x31 <=1 
C479: x14+x33 <=1 
C480: x14+x34-y14_34 <=1 
C481: x14+x36-y14_36 <=1 
C482: x14+x43-y14_43 <=1 
C483: x14+x44-y14_44 <=1 
C484: x14+x46 <=1 
C485: x14+x47-y14_47 <=1 
C486: x14+x50 <=1 
C487: x14+x51 <=1 
C488: x14+x54 <=1 
C489: x14+x55-y14_55 <=1 
C490: x14+x56-y14_56 <=1 
C491: x14+x57 <=1 
C492: x14+x58-y14_58 <=1 
C493: x14+x59-y14_59 <=1 
C494: x14+x62-y14_62 <=1 
C495: x14+x63 <=1 
C496: x15+x18 <=1 
C497: x15+x19 <=1 
C498: x15+x20-y15_20 <=1 
C499: x15+x22 <=1 
C500: x15+x23 <=1 
C501: x15+x24-y15_24 <=1 
C502: x15+x27-y15_27 <=1 
C503: x15+x28-y15_28 <=1 
C504: x15+x32-y15_32 <=1 
C505: x15+x33-y15_33 <=1 
C506: x15+x37 <=1 
C507: x15+x38-y15_38 <=1 
C508: x15+x39-y15_39 <=1 
C509: x15+x40-y15_40 <=1 
C510: x15+x42 <=1 
C511: x15+x44-y15_44 <=1 
C512: x15+x45 <=1 
C513: x15+x46 <=1 
C514: x15+x49-y15_49 <=1 
C515: x15+x51 <=1 
C516: x15+x52-y15_52 <=1 
C517: x15+x55-y15_55 <=1 
C518: x15+x56 <=1 
C519: x15+x57-y15_57 <=1 
C520: x15+x61 <=1 
C521: x15+x62 <=1 
C522: x15+x63 <=1 
C523: x16+x17 <=1 
C524: x16+x19 <=1 
C525: x16+x22-y16_22 <=1 
C526: x16+x23-y16_23 <=1 
C527: x16+x27 <=1 
C528: x16+x28-y16_28 <=1 
C529: x16+x29-y16_29 <=1 
C530: x16+x30-y16_30 <=1 
C531: x16+x33 <=1 
C532: x16+x36 <=1 
C533: x16+x38 <=1 
C534: x16+x39 <=1 
C535: x16+x41 <=1 
C536: x16+x42-y16_42 <=1 
C537: x16+x46-y16_46 <=1 
C538: x16+x49-y16_49 <=1 
C539: x16+x50 <=1 
C540: x16+x51-y16_51 <=1 
C541: x16+x52 <=1 
C542: x16+x53 <=1 
C543: x16+x54-y16_54 <=1 
C544: x16+x55-y16_55 <=1 
C545: x16+x56-y16_56 <=1 
C546: x16+x57-y16_57 <=1 
C547: x16+x60 <=1 
C548: x16+x61 <=1 
C549: x16+x62-y16_62 <=1 
C550: x17+x21 <=1 
C551: x17+x22 <=1 
C552: x17+x23-y17_23 <=1 
C553: x17+x25-y17_25 <=1 
C554: x17+x26 <=1 
C555: x17+x28 <=1 
C556: x17+x29 <=1 
C557: x17+x30-y17_30 <=1 
C558: x17+x31 <=1 
C559: x17+x33-y17_33 <=1 
C560: x17+x35 <=1 
C561: x17+x36 <=1 
C562: x17+x40 <=1 
C563: x17+x41 <=1 
C564: x17+x43 <=1 
C565: x17+x46-y17_46 <=1 
C566: x17+x48 <=1 
C567: x17+x49-y17_49 <=1 
C568: x17+x50 <=1 
C569: x17+x53 <=1 
C570: x17+x55-y17_55 <=1 
C571: x17+x56 <=1 
C572: x17+x57-y17_57 <=1 
C573: x17+x58-y17_58 <=1 
C574: x17+x60-y17_60 <=1 
C575: x17+x61 <=1 
C576: x17+x62-y17_62 <=1 
C577: x17+x63-y17_63 <=1 
C578: x18+x19-y18_19 <=1 
C579: x18+x23-y18_23 <=1 
C580: x18+x24-y18_24 <=1 
C581: x18+x25-y18_25 <=1 
C582: x18+x26-y18_26 <=1 
C583: x18+x27 <=1 
C584: x18+x29 <=1 
C585: x18+x31 <=1 
C586: x18+x32-y18_32 <=1 
C587: x18+x34 <=1 
C588: x18+x35 <=1 
C589: x18+x37-y18_37 <=1 
C590: x18+x38-y18_38 <=1 
C591: x18+x40-y18_40 <=1 
C592: x18+x41-y18_41 <=1 
C593: x18+x42-y18_42 <=1 
C594: x18+x44 <=1 
C595: x18+x45-y18_45 <=1 
C596: x18+x46 <=1 
C597: x18+x47 <=1 
C598: x18+x49 <=1 
C599: x18+x51-y18_51 <=1 
C600: x18+x52-y18_52 <=1 
C601: x18+x53-y18_53 <=1 
C602: x18+x56 <=1 
C603: x18+x60-y18_60 <=1 
C604: x18+x61-y18_61 <=1 
C605: x18+x62 <=1 
C606: x18+x63 <=1 
C607: x19+x21-y19_21 <=1 
C608: x19+x23 <=1 
C609: x19+x24-y19_24 <=1 
C610: x19+x26-y19_26 <=1 
C611: x19+x27 <=1 
C612: x19+x28 <=1 
C613: x19+x29-y19_29 <=1 
C614: x19+x30 <=1 
C615: x19+x31-y19_31 <=1 
C616: x19+x32 <=1 
C617: x19+x34-y19_34 <=1 
C618: x19+x37 <=1 
C619: x19+x39-y19_39 <=1 
C620: x19+x41-y19_41 <=1 
C621: x19+x42-y19_42 <=1 
C622: x19+x44 <=1 
C623: x19+x46 <=1 
C624: x19+x49 <=1 
C625: x19+x50-y19_50 <=1 
C626: x19+x51-y19_51 <=1 
C627: x19+x54-y19_54 <=1 
C628: x19+x55 <=1 
C629: x19+x56-y19_56 <=1 
C630: x19+x58-y19_58 <=1 
C631: x19+x59 <=1 
C632: x19+x61 <=1 
C633: x19+x62-y19_62 <=1 
C634: x20+x21 <=1 
C635: x20+x25 <=1 
C636: x20+x26 <=1 
C637: x20+x29 <=1 
C638: x20+x31 <=1 
C639: x20+x32-y20_32 <=1 
C640: x20+x33 <=1 
C641: x20+x35-y20_35 <=1 
C642: x20+x36-y20_36 <=1 
C643: x20+x38 <=1 
C644: x20+x39 <=1 
C645: x20+x40-y20_40 <=1 
C646: x20+x42-y20_42 <=1 
C647: x20+x44-y20_44 <=1 
C648: x20+x45-y20_45 <=1 
C649: x20+x48 <=1 
C650: x20+x50-y20_50 <=1 
C651: x20+x52 <=1 
C652: x20+x53-y20_53 <=1 
C653: x20+x54-y20_54 <=1 
C654: x20+x55 <=1 
C655: x20+x58 <=1 
C656: x20+x60-y20_60 <=1 
C657: x20+x62 <=1 
C658: x20+x63-y20_63 <=1 
C659: x21+x22 <=1 
C660: x21+x27 <=1 
C661: x21+x28 <=1 
C662: x21+x30-y21_30 <=1 
C663: x21+x32-y21_32 <=1 
C664: x21+x33-y21_33 <=1 
C665: x21+x34-y21_34 <=1 
C666: x21+x35-y21_35 <=1 
C667: x21+x36 <=1 
C668: x21+x39 <=1 
C669: x21+x40 <=1 
C670: x21+x42 <=1 
C671: x21+x45 <=1 
C672: x21+x46 <=1 
C673: x21+x49-y21_49 <=1 
C674: x21+x50 <=1 
C675: x21+x51 <=1 
C676: x21+x54-y21_54 <=1 
C677: x21+x55 <=1 
C678: x21+x56 <=1 
C679: x21+x57 <=1 
C680: x21+x58-y21_58 <=1 
C681: x21+x60-y21_60 <=1 
C682: x22+x23 <=1 
C683: x22+x27 <=1 
C684: x22+x28-y22_28 <=1 
C685: x22+x29-y22_29 <=1 
C686: x22+x31 <=1 
C687: x22+x32 <=1 
C688: x22+x36-y22_36 <=1 
C689: x22+x37-y22_37 <=1 
C690: x22+x40 <=1 
C691: x22+x41 <=1 
C692: x22+x45 <=1 
C693: x22+x46-y22_46 <=1 
C694: x22+x50 <=1 
C695: x22+x51-y22_51 <=1 
C696: x22+x53 <=1 
C697: x22+x55-y22_55 <=1 
C698: x22+x57-y22_57 <=1 
C699: x22+x59 <=1 
C700: x22+x60-y22_60 <=1 
C701: x22+x61 <=1 
C702: x22+x62-y22_62 <=1 
C703: x22+x63 <=1 
C704: x23+x27 <=1 
C705: x23+x28-y23_28 <=1 
C706: x23+x29-y23_29 <=1 
C707: x23+x32 <=1 
C708: x23+x33-y23_33 <=1 
C709: x23+x34-y23_34 <=1 
C710: x23+x35-y23_35 <=1 
C711: x23+x37 <=1 
C712: x23+x38-y23_38 <=1 
C713: x23+x40 <=1 
C714: x23+x43-y23_43 <=1 
C715: x23+x50-y23_50 <=1 
C716: x23+x54 <=1 
C717: x23+x57-y23_57 <=1 
C718: x23+x58 <=1 
C719: x23+x60-y23_60 <=1 
C720: x23+x61 <=1 
C721: x23+x63 <=1 
C722: x24+x25 <=1 
C723: x24+x28-y24_28 <=1 
C724: x24+x29-y24_29 <=1 
C725: x24+x30-y24_30 <=1 
C726: x24+x31-y24_31 <=1 
C727: x24+x32-y24_32 <=1 
C728: x24+x33 <=1 
C729: x24+x36-y24_36 <=1 
C730: x24+x37-y24_37 <=1 
C731: x24+x38 <=1 
C732: x24+x44 <=1 
C733: x24+x45-y24_45 <=1 
C734: x24+x46-y24_46 <=1 
C735: x24+x47-y24_47 <=1 
C736: x24+x48 <=1 
C737: x24+x50-y24_50 <=1 
C738: x24+x52-y24_52 <=1 
C739: x24+x54-y24_54 <=1 
C740: x24+x55-y24_55 <=1 
C741: x24+x58 <=1 
C742: x24+x59-y24_59 <=1 
C743: x24+x60-y24_60 <=1 
C744: x24+x61-y24_61 <=1 
C745: x24+x62 <=1 
C746: x24+x63-y24_63 <=1 
C747: x25+x28-y25_28 <=1 
C748: x25+x29 <=1 
C749: x25+x31 <=1 
C750: x25+x33 <=1 
C751: x25+x34-y25_34 <=1 
C752: x25+x36 <=1 
C753: x25+x38 <=1 
C754: x25+x40 <=1 
C755: x25+x41 <=1 
C756: x25+x42-y25_42 <=1 
C757: x25+x43-y25_43 <=1 
C758: x25+x45 <=1 
C759: x25+x47-y25_47 <=1 
C760: x25+x48 <=1 
C761: x25+x49 <=1 
C762: x25+x52 <=1 
C763: x25+x54-y25_54 <=1 
C764: x25+x55-y25_55 <=1 
C765: x25+x58 <=1 
C766: x25+x59-y25_59 <=1 
C767: x25+x60 <=1 
C768: x26+x28-y26_28 <=1 
C769: x26+x29 <=1 
C770: x26+x31 <=1 
C771: x26+x36-y26_36 <=1 
C772: x26+x38 <=1 
C773: x26+x39-y26_39 <=1 
C774: x26+x41-y26_41 <=1 
C775: x26+x45-y26_45 <=1 
C776: x26+x46-y26_46 <=1 
C777: x26+x49 <=1 
C778: x26+x50-y26_50 <=1 
C779: x26+x51 <=1 
C780: x26+x53-y26_53 <=1 
C781: x26+x57 <=1 
C782: x26+x58 <=1 
C783: x26+x60 <=1 
C784: x26+x62 <=1 
C785: x27+x28 <=1 
C786: x27+x29-y27_29 <=1 
C787: x27+x33-y27_33 <=1 
C788: x27+x34-y27_34 <=1 
C789: x27+x35-y27_35 <=1 
C790: x27+x36-y27_36 <=1 
C791: x27+x37 <=1 
C792: x27+x38-y27_38 <=1 
C793: x27+x39 <=1 
C794: x27+x40-y27_40 <=1 
C795: x27+x41-y27_41 <=1 
C796: x27+x42 <=1 
C797: x27+x43 <=1 
C798: x27+x44 <=1 
C799: x27+x45 <=1 
C800: x27+x47 <=1 
C801: x27+x49-y27_49 <=1 
C802: x27+x50 <=1 
C803: x27+x51-y27_51 <=1 
C804: x27+x52-y27_52 <=1 
C805: x27+x53-y27_53 <=1 
C806: x27+x56 <=1 
C807: x27+x57-y27_57 <=1 
C808: x27+x58 <=1 
C809: x27+x59 <=1 
C810: x27+x62-y27_62 <=1 
C811: x27+x63 <=1 
C812: x28+x30 <=1 
C813: x28+x32-y28_32 <=1 
C814: x28+x33 <=1 
C815: x28+x34-y28_34 <=1 
C816: x28+x35-y28_35 <=1 
C817: x28+x37-y28_37 <=1 
C818: x28+x38 <=1 
C819: x28+x39 <=1 
C820: x28+x41-y28_41 <=1 
C821: x28+x42 <=1 
C822: x28+x44 <=1 
C823: x28+x45 <=1 
C824: x28+x46-y28_46 <=1 
C825: x28+x47 <=1 
C826: x28+x50 <=1 
C827: x28+x51-y28_51 <=1 
C828: x28+x52 <=1 
C829: x28+x54-y28_54 <=1 
C830: x28+x56 <=1 
C831: x28+x57 <=1 
C832: x28+x58 <=1 
C833: x28+x60-y28_60 <=1 
C834: x28+x61-y28_61 <=1 
C835: x28+x63-y28_63 <=1 
C836: x29+x30-y29_30 <=1 
C837: x29+x31 <=1 
C838: x29+x32 <=1 
C839: x29+x33 <=1 
C840: x29+x35 <=1 
C841: x29+x36-y29_36 <=1 
C842: x29+x42-y29_42 <=1 
C843: x29+x43 <=1 
C844: x29+x45 <=1 
C845: x29+x46-y29_46 <=1 
C846: x29+x47-y29_47 <=1 
C847: x29+x49 <=1 
C848: x29+x50-y29_50 <=1 
C849: x29+x51-y29_51 <=1 
C850: x29+x52 <=1 
C851: x29+x53-y29_53 <=1 
C852: x29+x55-y29_55 <=1 
C853: x29+x57 <=1 
C854: x29+x58-y29_58 <=1 
C855: x29+x61 <=1 
C856: x29+x63-y29_63 <=1 
C857: x30+x32 <=1 
C858: x30+x34 <=1 
C859: x30+x36 <=1 
C860: x30+x37 <=1 
C861: x30+x40 <=1 
C862: x30+x44-y30_44 <=1 
C863: x30+x47 <=1 
C864: x30+x49-y30_49 <=1 
C865: x30+x51-y30_51 <=1 
C866: x30+x54-y30_54 <=1 
C867: x30+x56 <=1 
C868: x30+x57 <=1 
C869: x30+x58 <=1 
C870: x30+x59 <=1 
C871: x30+x61 <=1 
C872: x30+x62-y30_62 <=1 
C873: x30+x63-y30_63 <=1 
C874: x31+x32 <=1 
C875: x31+x33-y31_33 <=1 
C876: x31+x36 <=1 
C877: x31+x37 <=1 
C878: x31+x38-y31_38 <=1 
C879: x31+x39-y31_39 <=1 
C880: x31+x42 <=1 
C881: x31+x47 <=1 
C882: x31+x48-y31_48 <=1 
C883: x31+x49 <=1 
C884: x31+x50 <=1 
C885: x31+x51 <=1 
C886: x31+x52-y31_52 <=1 
C887: x31+x56-y31_56 <=1 
C888: x31+x59-y31_59 <=1 
C889: x31+x60-y31_60 <=1 
C890: x31+x61 <=1 
C891: x31+x62-y31_62 <=1 
C892: x32+x33 <=1 
C893: x32+x35 <=1 
C894: x32+x37 <=1 
C895: x32+x38-y32_38 <=1 
C896: x32+x40-y32_40 <=1 
C897: x32+x41-y32_41 <=1 
C898: x32+x44-y32_44 <=1 
C899: x32+x45-y32_45 <=1 
C900: x32+x47 <=1 
C901: x32+x48-y32_48 <=1 
C902: x32+x51-y32_51 <=1 
C903: x32+x53-y32_53 <=1 
C904: x32+x54 <=1 
C905: x32+x55-y32_55 <=1 
C906: x32+x59 <=1 
C907: x32+x61-y32_61 <=1 
C908: x32+x62-y32_62 <=1 
C909: x33+x34-y33_34 <=1 
C910: x33+x36-y33_36 <=1 
C911: x33+x37 <=1 
C912: x33+x39-y33_39 <=1 
C913: x33+x41-y33_41 <=1 
C914: x33+x46-y33_46 <=1 
C915: x33+x49 <=1 
C916: x33+x50-y33_50 <=1 
C917: x33+x51 <=1 
C918: x33+x52-y33_52 <=1 
C919: x33+x54 <=1 
C920: x33+x56-y33_56 <=1 
C921: x33+x57-y33_57 <=1 
C922: x33+x59 <=1 
C923: x33+x60-y33_60 <=1 
C924: x33+x61 <=1 
C925: x34+x35-y34_35 <=1 
C926: x34+x36 <=1 
C927: x34+x37 <=1 
C928: x34+x39 <=1 
C929: x34+x41-y34_41 <=1 
C930: x34+x42 <=1 
C931: x34+x43 <=1 
C932: x34+x44-y34_44 <=1 
C933: x34+x49-y34_49 <=1 
C934: x34+x51 <=1 
C935: x34+x52 <=1 
C936: x34+x53 <=1 
C937: x34+x54 <=1 
C938: x34+x55-y34_55 <=1 
C939: x34+x56-y34_56 <=1 
C940: x34+x57 <=1 
C941: x34+x58 <=1 
C942: x34+x59-y34_59 <=1 
C943: x34+x60-y34_60 <=1 
C944: x34+x62 <=1 
C945: x34+x63 <=1 
C946: x35+x36 <=1 
C947: x35+x40 <=1 
C948: x35+x42-y35_42 <=1 
C949: x35+x43-y35_43 <=1 
C950: x35+x44 <=1 
C951: x35+x48-y35_48 <=1 
C952: x35+x49-y35_49 <=1 
C953: x35+x50 <=1 
C954: x35+x51-y35_51 <=1 
C955: x35+x52 <=1 
C956: x35+x53 <=1 
C957: x35+x54 <=1 
C958: x35+x55-y35_55 <=1 
C959: x35+x56-y35_56 <=1 
C960: x35+x57 <=1 
C961: x35+x59-y35_59 <=1 
C962: x35+x61 <=1 
C963: x35+x62-y35_62 <=1 
C964: x35+x63 <=1 
C965: x36+x39 <=1 
C966: x36+x40-y36_40 <=1 
C967: x36+x45 <=1 
C968: x36+x46-y36_46 <=1 
C969: x36+x49 <=1 
C970: x36+x50 <=1 
C971: x36+x51 <=1 
C972: x36+x52-y36_52 <=1 
C973: x36+x53 <=1 
C974: x36+x54-y36_54 <=1 
C975: x36+x55-y36_55 <=1 
C976: x36+x56 <=1 
C977: x36+x57-y36_57 <=1 
C978: x36+x58-y36_58 <=1 
C979: x36+x60 <=1 
C980: x36+x63 <=1 
C981: x37+x38-y37_38 <=1 
C982: x37+x39 <=1 
C983: x37+x41-y37_41 <=1 
C984: x37+x44 <=1 
C985: x37+x45-y37_45 <=1 
C986: x37+x46 <=1 
C987: x37+x47-y37_47 <=1 
C988: x37+x48 <=1 
C989: x37+x50-y37_50 <=1 
C990: x37+x51-y37_51 <=1 
C991: x37+x53 <=1 
C992: x37+x54-y37_54 <=1 
C993: x37+x55-y37_55 <=1 
C994: x37+x56-y37_56 <=1 
C995: x37+x57 <=1 
C996: x37+x58-y37_58 <=1 
C997: x37+x61 <=1 
C998: x37+x63 <=1 
C999: x38+x39-y38_39 <=1 
C1000: x38+x40 <=1 
C1001: x38+x41-y38_41 <=1 
C1002: x38+x43 <=1 
C1003: x38+x44 <=1 
C1004: x38+x45-y38_45 <=1 
C1005: x38+x46-y38_46 <=1 
C1006: x38+x47 <=1 
C1007: x38+x48 <=1 
C1008: x38+x50-y38_50 <=1 
C1009: x38+x51 <=1 
C1010: x38+x54 <=1 
C1011: x38+x56-y38_56 <=1 
C1012: x38+x57 <=1 
C1013: x38+x58 <=1 
C1014: x38+x61-y38_61 <=1 
C1015: x38+x63 <=1 
C1016: x39+x40-y39_40 <=1 
C1017: x39+x42 <=1 
C1018: x39+x43-y39_43 <=1 
C1019: x39+x46 <=1 
C1020: x39+x47 <=1 
C1021: x39+x48-y39_48 <=1 
C1022: x39+x49 <=1 
C1023: x39+x50-y39_50 <=1 
C1024: x39+x51-y39_51 <=1 
C1025: x39+x52 <=1 
C1026: x39+x53-y39_53 <=1 
C1027: x39+x54-y39_54 <=1 
C1028: x39+x56 <=1 
C1029: x39+x58 <=1 
C1030: x39+x59-y39_59 <=1 
C1031: x39+x60-y39_60 <=1 
C1032: x39+x62-y39_62 <=1 
C1033: x40+x43 <=1 
C1034: x40+x45 <=1 
C1035: x40+x46 <=1 
C1036: x40+x47 <=1 
C1037: x40+x49-y40_49 <=1 
C1038: x40+x51-y40_51 <=1 
C1039: x40+x52 <=1 
C1040: x40+x56 <=1 
C1041: x40+x57-y40_57 <=1 
C1042: x40+x61 <=1 
C1043: x40+x62 <=1 
C1044: x40+x63-y40_63 <=1 
C1045: x41+x43 <=1 
C1046: x41+x44-y41_44 <=1 
C1047: x41+x45-y41_45 <=1 
C1048: x41+x46 <=1 
C1049: x41+x49-y41_49 <=1 
C1050: x41+x50-y41_50 <=1 
C1051: x41+x53 <=1 
C1052: x41+x55 <=1 
C1053: x41+x57-y41_57 <=1 
C1054: x41+x59-y41_59 <=1 
C1055: x41+x60 <=1 
C1056: x41+x61-y41_61 <=1 
C1057: x41+x62-y41_62 <=1 
C1058: x42+x44-y42_44 <=1 
C1059: x42+x45 <=1 
C1060: x42+x48-y42_48 <=1 
C1061: x42+x57 <=1 
C1062: x42+x59 <=1 
C1063: x42+x61 <=1 
C1064: x42+x62-y42_62 <=1 
C1065: x42+x63-y42_63 <=1 
C1066: x43+x45 <=1 
C1067: x43+x51 <=1 
C1068: x43+x52-y43_52 <=1 
C1069: x43+x53 <=1 
C1070: x43+x54-y43_54 <=1 
C1071: x43+x55 <=1 
C1072: x43+x57-y43_57 <=1 
C1073: x43+x58 <=1 
C1074: x43+x59-y43_59 <=1 
C1075: x43+x60 <=1 
C1076: x43+x61 <=1 
C1077: x43+x63-y43_63 <=1 
C1078: x44+x45-y44_45 <=1 
C1079: x44+x47-y44_47 <=1 
C1080: x44+x48-y44_48 <=1 
C1081: x44+x50 <=1 
C1082: x44+x51 <=1 
C1083: x44+x52 <=1 
C1084: x44+x53-y44_53 <=1 
C1085: x44+x54-y44_54 <=1 
C1086: x44+x56 <=1 
C1087: x44+x57-y44_57 <=1 
C1088: x44+x59-y44_59 <=1 
C1089: x44+x60-y44_60 <=1 
C1090: x44+x62-y44_62 <=1 
C1091: x44+x63-y44_63 <=1 
C1092: x45+x46 <=1 
C1093: x45+x49 <=1 
C1094: x45+x50-y45_50 <=1 
C1095: x45+x51 <=1 
C1096: x45+x55-y45_55 <=1 
C1097: x45+x57-y45_57 <=1 
C1098: x45+x58 <=1 
C1099: x45+x60 <=1 
C1100: x45+x61 <=1 
C1101: x45+x62-y45_62 <=1 
C1102: x46+x47 <=1 
C1103: x46+x48-y46_48 <=1 
C1104: x46+x49-y46_49 <=1 
C1105: x46+x50 <=1 
C1106: x46+x52-y46_52 <=1 
C1107: x46+x53 <=1 
C1108: x46+x54 <=1 
C1109: x46+x56 <=1 
C1110: x46+x57-y46_57 <=1 
C1111: x46+x59 <=1 
C1112: x46+x60-y46_60 <=1 
C1113: x46+x61 <=1 
C1114: x46+x63-y46_63 <=1 
C1115: x47+x49 <=1 
C1116: x47+x50 <=1 
C1117: x47+x52 <=1 
C1118: x47+x54-y47_54 <=1 
C1119: x47+x55 <=1 
C1120: x47+x56-y47_56 <=1 
C1121: x47+x58 <=1 
C1122: x47+x60-y47_60 <=1 
C1123: x47+x61-y47_61 <=1 
C1124: x48+x50-y48_50 <=1 
C1125: x48+x53 <=1 
C1126: x48+x55-y48_55 <=1 
C1127: x48+x56-y48_56 <=1 
C1128: x48+x57 <=1 
C1129: x48+x59 <=1 
C1130: x48+x60 <=1 
C1131: x48+x61-y48_61 <=1 
C1132: x48+x62 <=1 
C1133: x48+x63-y48_63 <=1 
C1134: x49+x50 <=1 
C1135: x49+x54 <=1 
C1136: x49+x55 <=1 
C1137: x49+x57 <=1 
C1138: x49+x59-y49_59 <=1 
C1139: x49+x60 <=1 
C1140: x49+x62-y49_62 <=1 
C1141: x49+x63-y49_63 <=1 
C1142: x50+x51 <=1 
C1143: x50+x56 <=1 
C1144: x50+x59 <=1 
C1145: x50+x60-y50_60 <=1 
C1146: x50+x61-y50_61 <=1 
C1147: x51+x52 <=1 
C1148: x51+x55-y51_55 <=1 
C1149: x51+x56-y51_56 <=1 
C1150: x51+x57-y51_57 <=1 
C1151: x51+x58 <=1 
C1152: x51+x59 <=1 
C1153: x51+x60 <=1 
C1154: x51+x61-y51_61 <=1 
C1155: x52+x53 <=1 
C1156: x52+x54-y52_54 <=1 
C1157: x52+x56-y52_56 <=1 
C1158: x52+x57 <=1 
C1159: x52+x59-y52_59 <=1 
C1160: x52+x61 <=1 
C1161: x52+x62 <=1 
C1162: x52+x63-y52_63 <=1 
C1163: x53+x54 <=1 
C1164: x53+x56 <=1 
C1165: x53+x57-y53_57 <=1 
C1166: x53+x58 <=1 
C1167: x53+x59-y53_59 <=1 
C1168: x54+x56-y54_56 <=1 
C1169: x54+x60-y54_60 <=1 
C1170: x54+x62 <=1 
C1171: x54+x63-y54_63 <=1 
C1172: x55+x56-y55_56 <=1 
C1173: x55+x59 <=1 
C1174: x55+x62 <=1 
C1175: x55+x63 <=1 
C1176: x56+x57-y56_57 <=1 
C1177: x56+x60-y56_60 <=1 
C1178: x56+x62-y56_62 <=1 
C1179: x56+x63-y56_63 <=1 
C1180: x57+x59-y57_59 <=1 
C1181: x57+x60-y57_60 <=1 
C1182: x57+x61 <=1 
C1183: x57+x62 <=1 
C1184: x57+x63-y57_63 <=1 
C1185: x58+x59 <=1 
C1186: x58+x60 <=1 
C1187: x58+x61-y58_61 <=1 
C1188: x58+x62-y58_62 <=1 
C1189: x58+x63-y58_63 <=1 
C1190: x59+x60-y59_60 <=1 
C1191: x59+x62 <=1 
C1192: x61+x62 <=1 

binary
x0
x1
x2
x3
x4
x5
x6
x7
x8
x9
x10
x11
x12
x13
x14
x15
x16
x17
x18
x19
x20
x21
x22
x23
x24
x25
x26
x27
x28
x29
x30
x31
x32
x33
x34
x35
x36
x37
x38
x39
x40
x41
x42
x43
x44
x45
x46
x47
x48
x49
x50
x51
x52
x53
x54
x55
x56
x57
x58
x59
x60
x61
x62
x63
