problem_generation/data/GISP/train/er_n=64_m=1192_p=0.60_SET2_setparam=100.00_alpha=0.50_454.sol
objective value:                                 1272
x4                                                  1 	(obj:100)
x8                                                  1 	(obj:100)
x12                                                 1 	(obj:100)
x16                                                 1 	(obj:100)
x20                                                 1 	(obj:100)
x23                                                 1 	(obj:100)
x24                                                 1 	(obj:100)
x30                                                 1 	(obj:100)
x35                                                 1 	(obj:100)
x42                                                 1 	(obj:100)
x43                                                 1 	(obj:100)
x46                                                 1 	(obj:100)
x49                                                 1 	(obj:100)
y24_46                                              1 	(obj:-1)
y16_46                                              1 	(obj:-1)
y35_49                                              1 	(obj:-1)
y23_43                                              1 	(obj:-1)
y16_49                                              1 	(obj:-1)
y12_20                                              1 	(obj:-1)
y20_42                                              1 	(obj:-1)
y24_30                                              1 	(obj:-1)
y12_24                                              1 	(obj:-1)
y4_20                                               1 	(obj:-1)
y16_30                                              1 	(obj:-1)
y46_49                                              1 	(obj:-1)
y8_49                                               1 	(obj:-1)
y30_49                                              1 	(obj:-1)
y4_24                                               1 	(obj:-1)
y8_35                                               1 	(obj:-1)
y12_23                                              1 	(obj:-1)
y8_16                                               1 	(obj:-1)
y35_43                                              1 	(obj:-1)
y35_42                                              1 	(obj:-1)
y4_23                                               1 	(obj:-1)
y16_42                                              1 	(obj:-1)
y20_35                                              1 	(obj:-1)
y12_35                                              1 	(obj:-1)
y23_35                                              1 	(obj:-1)
y16_23                                              1 	(obj:-1)
y4_8                                                1 	(obj:-1)
y4_35                                               1 	(obj:-1)
